1 31 2
-835 -83 -561 -13 -105 -178 -968 -380 -29 -378 -737 -266 -60 -463 -808 -989 -800 -148 -425 -299 -848 -402 -629 -128 -393 -834 -278 -810 -706 -213 0 
-90 -889 -386 -923 -924 -732 -126 -603 -994 -582 -295 -771 -868 -611 -167 -90 -151 -922 -517 -801 -53 -665 -400 -965 -600 -84 -640 -264 -296 -793 0 
1039 980 951 883 1198 885 1273 989 1139 802 851 950 1051 948 1154 1081 904 967 1116 1134 709 1208 1070 1285 985 718 773 1269 1143 1046 1 
15250 
